homework5/result.sol
# Objective value = 4245880
x_1,6 0
x_1,7 0
x_1,8 208
x_1,9 0
x_2,6 0
x_2,7 79
x_2,8 29
x_2,9 85
x_3,6 0
x_3,7 195
x_3,8 0
x_3,9 0
x_4,6 0
x_4,7 83
x_4,8 50
x_4,9 76
x_5,6 1530
x_5,7 1226
x_5,8 1275
x_5,9 0
